;; translated from ./ctigar/pldi082_unbounded.c.vmt
;; original benchmark available at: https://es-static.fbk.eu/people/griggio/ic3ia/index.html
;; author: Alberto Griggio <griggio@fbk.eu>
(set-logic HORN)
(declare-fun state (Bool Bool Bool Bool Bool Int Int Int) Bool)
(assert (forall ((|.s.2| Bool) (|.s.3| Bool) (|.s.0| Bool) (|.s.1| Bool) (|.s.0.next| Bool) (|.s.1.next| Bool) (|.s.2.next| Bool) (|.s.3.next| Bool) (|.s.4.next| Bool) (|main.x.next| Int) (|main.x| Int) (|main.n.next| Int) (|main.n| Int) (|main.y.next| Int) (|main.y| Int) (|.s.4| Bool)) (=> (let ((.def_20 (not .s.4)))
(let ((.def_17 (not .s.3)))
(let ((.def_14 (not .s.2)))
(let ((.def_10 (not .s.1)))
(let ((.def_12 (and .def_10 .s.0)))
(let ((.def_15 (and .def_12 .def_14)))
(let ((.def_18 (and .def_15 .def_17)))
(let ((.def_21 (and .def_18 .def_20)))
.def_21)))))))) (state |.s.1| |.s.0| |.s.2| |.s.3| |.s.4| |main.y| |main.n| |main.x|))))
(assert (forall ((|.s.2| Bool) (|.s.3| Bool) (|.s.0| Bool) (|.s.1| Bool) (|.s.0.next| Bool) (|.s.1.next| Bool) (|.s.2.next| Bool) (|.s.3.next| Bool) (|.s.4.next| Bool) (|main.x.next| Int) (|main.x| Int) (|main.n.next| Int) (|main.n| Int) (|main.y.next| Int) (|main.y| Int) (|.s.4| Bool)) (=> (and (state |.s.1| |.s.0| |.s.2| |.s.3| |.s.4| |main.y| |main.n| |main.x|) (let ((.def_22 (not .s.0)))
(let ((.def_10 (not .s.1)))
(let ((.def_23 (and .def_10 .def_22)))
(let ((.def_14 (not .s.2)))
(let ((.def_24 (and .def_14 .def_23)))
(let ((.def_17 (not .s.3)))
(let ((.def_147 (and .def_17 .def_24)))
(let ((.def_20 (not .s.4)))
(let ((.def_324 (and .def_20 .def_147)))
(let ((.def_325 (not .def_324)))
(let ((.def_46 (not .s.0.next)))
(let ((.def_44 (not .s.1.next)))
(let ((.def_47 (and .def_44 .def_46)))
(let ((.def_42 (not .s.2.next)))
(let ((.def_48 (and .def_42 .def_47)))
(let ((.def_40 (not .s.3.next)))
(let ((.def_49 (and .def_40 .def_48)))
(let ((.def_38 (not .s.4.next)))
(let ((.def_50 (and .def_38 .def_49)))
(let ((.def_36 (= main.x main.x.next)))
(let ((.def_51 (and .def_36 .def_50)))
(let ((.def_33 (= main.n main.n.next)))
(let ((.def_52 (and .def_33 .def_51)))
(let ((.def_30 (= main.y main.y.next)))
(let ((.def_53 (and .def_30 .def_52)))
(let ((.def_326 (or .def_53 .def_325)))
(let ((.def_93 (and .s.1.next .def_46)))
(let ((.def_137 (and .def_42 .def_93)))
(let ((.def_138 (and .def_40 .def_137)))
(let ((.def_319 (and .def_38 .def_138)))
(let ((.def_318 (= main.x.next 0)))
(let ((.def_320 (and .def_318 .def_319)))
(let ((.def_317 (= main.y.next 0)))
(let ((.def_321 (and .def_317 .def_320)))
(let ((.def_322 (and .def_33 .def_321)))
(let ((.def_12 (and .def_10 .s.0)))
(let ((.def_15 (and .def_12 .def_14)))
(let ((.def_18 (and .def_15 .def_17)))
(let ((.def_21 (and .def_18 .def_20)))
(let ((.def_316 (not .def_21)))
(let ((.def_323 (or .def_316 .def_322)))
(let ((.def_327 (and .def_323 .def_326)))
(let ((.def_68 (and .s.1 .def_22)))
(let ((.def_133 (and .def_14 .def_68)))
(let ((.def_134 (and .def_17 .def_133)))
(let ((.def_305 (and .def_20 .def_134)))
(let ((.def_230 (<= 0 main.n)))
(let ((.def_313 (and .def_230 .def_305)))
(let ((.def_314 (not .def_313)))
(let ((.def_114 (and .s.2.next .def_47)))
(let ((.def_115 (and .def_40 .def_114)))
(let ((.def_116 (and .def_38 .def_115)))
(let ((.def_117 (and .def_36 .def_116)))
(let ((.def_118 (and .def_33 .def_117)))
(let ((.def_119 (and .def_30 .def_118)))
(let ((.def_315 (or .def_119 .def_314)))
(let ((.def_328 (and .def_315 .def_327)))
(let ((.def_60 (and .s.1.next .s.0.next)))
(let ((.def_216 (and .def_42 .def_60)))
(let ((.def_263 (and .def_40 .def_216)))
(let ((.def_308 (and .def_38 .def_263)))
(let ((.def_309 (and .def_36 .def_308)))
(let ((.def_310 (and .def_33 .def_309)))
(let ((.def_311 (and .def_30 .def_310)))
(let ((.def_231 (not .def_230)))
(let ((.def_306 (and .def_231 .def_305)))
(let ((.def_307 (not .def_306)))
(let ((.def_312 (or .def_307 .def_311)))
(let ((.def_329 (and .def_312 .def_328)))
(let ((.def_55 (and .s.1 .s.0)))
(let ((.def_121 (and .def_14 .def_55)))
(let ((.def_122 (and .def_17 .def_121)))
(let ((.def_302 (and .def_20 .def_122)))
(let ((.def_303 (not .def_302)))
(let ((.def_304 (or .def_53 .def_303)))
(let ((.def_330 (and .def_304 .def_329)))
(let ((.def_150 (and .def_44 .s.0.next)))
(let ((.def_288 (and .s.2.next .def_150)))
(let ((.def_289 (and .def_40 .def_288)))
(let ((.def_297 (and .def_38 .def_289)))
(let ((.def_298 (and .def_36 .def_297)))
(let ((.def_299 (and .def_33 .def_298)))
(let ((.def_300 (and .def_30 .def_299)))
(let ((.def_110 (and .s.2 .def_23)))
(let ((.def_111 (and .def_17 .def_110)))
(let ((.def_295 (and .def_20 .def_111)))
(let ((.def_296 (not .def_295)))
(let ((.def_301 (or .def_296 .def_300)))
(let ((.def_331 (and .def_301 .def_330)))
(let ((.def_290 (and .s.4.next .def_289)))
(let ((.def_291 (and .def_36 .def_290)))
(let ((.def_292 (and .def_33 .def_291)))
(let ((.def_293 (and .def_30 .def_292)))
(let ((.def_277 (<= main.x main.n)))
(let ((.def_285 (not .def_277)))
(let ((.def_83 (and .def_12 .s.2)))
(let ((.def_84 (and .def_17 .def_83)))
(let ((.def_276 (and .def_20 .def_84)))
(let ((.def_286 (and .def_276 .def_285)))
(let ((.def_287 (not .def_286)))
(let ((.def_294 (or .def_287 .def_293)))
(let ((.def_332 (and .def_294 .def_331)))
(let ((.def_94 (and .s.2.next .def_93)))
(let ((.def_95 (and .def_40 .def_94)))
(let ((.def_280 (and .def_38 .def_95)))
(let ((.def_281 (and .def_36 .def_280)))
(let ((.def_282 (and .def_33 .def_281)))
(let ((.def_283 (and .def_30 .def_282)))
(let ((.def_278 (and .def_276 .def_277)))
(let ((.def_279 (not .def_278)))
(let ((.def_284 (or .def_279 .def_283)))
(let ((.def_333 (and .def_284 .def_332)))
(let ((.def_75 (* (- 1) main.y.next)))
(let ((.def_76 (+ main.y .def_75)))
(let ((.def_271 (= .def_76 (- 1))))
(let ((.def_61 (and .s.2.next .def_60)))
(let ((.def_62 (and .def_40 .def_61)))
(let ((.def_63 (and .def_38 .def_62)))
(let ((.def_272 (and .def_63 .def_271)))
(let ((.def_273 (and .def_36 .def_272)))
(let ((.def_274 (and .def_33 .def_273)))
(let ((.def_69 (and .s.2 .def_68)))
(let ((.def_70 (and .def_17 .def_69)))
(let ((.def_269 (and .def_20 .def_70)))
(let ((.def_270 (not .def_269)))
(let ((.def_275 (or .def_270 .def_274)))
(let ((.def_334 (and .def_275 .def_333)))
(let ((.def_264 (and .s.4.next .def_263)))
(let ((.def_265 (and .def_36 .def_264)))
(let ((.def_266 (and .def_33 .def_265)))
(let ((.def_267 (and .def_30 .def_266)))
(let ((.def_252 (<= 0 main.y)))
(let ((.def_56 (and .s.2 .def_55)))
(let ((.def_57 (and .def_17 .def_56)))
(let ((.def_251 (and .def_20 .def_57)))
(let ((.def_261 (and .def_251 .def_252)))
(let ((.def_262 (not .def_261)))
(let ((.def_268 (or .def_262 .def_267)))
(let ((.def_335 (and .def_268 .def_334)))
(let ((.def_104 (and .s.3.next .def_48)))
(let ((.def_256 (and .def_38 .def_104)))
(let ((.def_257 (and .def_36 .def_256)))
(let ((.def_258 (and .def_33 .def_257)))
(let ((.def_259 (and .def_30 .def_258)))
(let ((.def_253 (not .def_252)))
(let ((.def_254 (and .def_251 .def_253)))
(let ((.def_255 (not .def_254)))
(let ((.def_260 (or .def_255 .def_259)))
(let ((.def_336 (and .def_260 .def_335)))
(let ((.def_151 (and .def_42 .def_150)))
(let ((.def_245 (and .s.3.next .def_151)))
(let ((.def_246 (and .def_38 .def_245)))
(let ((.def_247 (and .def_36 .def_246)))
(let ((.def_248 (and .def_33 .def_247)))
(let ((.def_249 (and .def_30 .def_248)))
(let ((.def_25 (and .s.3 .def_24)))
(let ((.def_243 (and .def_20 .def_25)))
(let ((.def_244 (not .def_243)))
(let ((.def_250 (or .def_244 .def_249)))
(let ((.def_337 (and .def_250 .def_336)))
(let ((.def_237 (and .s.3.next .def_137)))
(let ((.def_238 (and .def_38 .def_237)))
(let ((.def_239 (and .def_36 .def_238)))
(let ((.def_240 (and .def_33 .def_239)))
(let ((.def_241 (and .def_30 .def_240)))
(let ((.def_227 (and .def_15 .s.3)))
(let ((.def_228 (and .def_20 .def_227)))
(let ((.def_235 (and .def_228 .def_230)))
(let ((.def_236 (not .def_235)))
(let ((.def_242 (or .def_236 .def_241)))
(let ((.def_338 (and .def_242 .def_337)))
(let ((.def_232 (and .def_228 .def_231)))
(let ((.def_233 (not .def_232)))
(let ((.def_152 (and .def_40 .def_151)))
(let ((.def_153 (and .s.4.next .def_152)))
(let ((.def_154 (and .def_36 .def_153)))
(let ((.def_155 (and .def_33 .def_154)))
(let ((.def_156 (and .def_30 .def_155)))
(let ((.def_234 (or .def_156 .def_233)))
(let ((.def_339 (and .def_234 .def_338)))
(let ((.def_213 (= main.y (- 1))))
(let ((.def_223 (not .def_213)))
(let ((.def_211 (and .s.3 .def_133)))
(let ((.def_212 (and .def_20 .def_211)))
(let ((.def_224 (and .def_212 .def_223)))
(let ((.def_225 (not .def_224)))
(let ((.def_161 (and .s.4.next .def_49)))
(let ((.def_162 (and .def_36 .def_161)))
(let ((.def_163 (and .def_33 .def_162)))
(let ((.def_164 (and .def_30 .def_163)))
(let ((.def_226 (or .def_164 .def_225)))
(let ((.def_340 (and .def_226 .def_339)))
(let ((.def_217 (and .s.3.next .def_216)))
(let ((.def_218 (and .def_38 .def_217)))
(let ((.def_219 (and .def_36 .def_218)))
(let ((.def_220 (and .def_33 .def_219)))
(let ((.def_221 (and .def_30 .def_220)))
(let ((.def_214 (and .def_212 .def_213)))
(let ((.def_215 (not .def_214)))
(let ((.def_222 (or .def_215 .def_221)))
(let ((.def_341 (and .def_222 .def_340)))
(let ((.def_205 (and .s.3.next .def_114)))
(let ((.def_206 (and .def_38 .def_205)))
(let ((.def_207 (and .def_36 .def_206)))
(let ((.def_208 (and .def_33 .def_207)))
(let ((.def_209 (and .def_30 .def_208)))
(let ((.def_88 (* (- 1) main.x)))
(let ((.def_196 (* 2 main.n)))
(let ((.def_197 (+ .def_196 .def_88)))
(let ((.def_198 (<= .def_197 (- 3))))
(let ((.def_188 (and .s.3 .def_121)))
(let ((.def_189 (and .def_20 .def_188)))
(let ((.def_203 (and .def_189 .def_198)))
(let ((.def_204 (not .def_203)))
(let ((.def_210 (or .def_204 .def_209)))
(let ((.def_342 (and .def_210 .def_341)))
(let ((.def_199 (not .def_198)))
(let ((.def_200 (and .def_189 .def_199)))
(let ((.def_201 (not .def_200)))
(let ((.def_169 (and .s.3.next .def_61)))
(let ((.def_170 (and .def_38 .def_169)))
(let ((.def_171 (and .def_36 .def_170)))
(let ((.def_172 (and .def_33 .def_171)))
(let ((.def_173 (and .def_30 .def_172)))
(let ((.def_202 (or .def_173 .def_201)))
(let ((.def_343 (and .def_202 .def_342)))
(let ((.def_184 (and .s.3 .def_110)))
(let ((.def_185 (and .def_20 .def_184)))
(let ((.def_186 (not .def_185)))
(let ((.def_139 (and .s.4.next .def_138)))
(let ((.def_140 (and .def_36 .def_139)))
(let ((.def_141 (and .def_33 .def_140)))
(let ((.def_142 (and .def_30 .def_141)))
(let ((.def_187 (or .def_142 .def_186)))
(let ((.def_344 (and .def_187 .def_343)))
(let ((.def_178 (and .s.3.next .def_94)))
(let ((.def_179 (and .def_38 .def_178)))
(let ((.def_180 (and .def_36 .def_179)))
(let ((.def_181 (and .def_33 .def_180)))
(let ((.def_182 (and .def_30 .def_181)))
(let ((.def_175 (and .s.3 .def_83)))
(let ((.def_176 (and .def_20 .def_175)))
(let ((.def_177 (not .def_176)))
(let ((.def_183 (or .def_177 .def_182)))
(let ((.def_345 (and .def_183 .def_344)))
(let ((.def_166 (and .s.3 .def_69)))
(let ((.def_167 (and .def_20 .def_166)))
(let ((.def_168 (not .def_167)))
(let ((.def_174 (or .def_168 .def_173)))
(let ((.def_346 (and .def_174 .def_345)))
(let ((.def_158 (and .s.3 .def_56)))
(let ((.def_159 (and .def_20 .def_158)))
(let ((.def_160 (not .def_159)))
(let ((.def_165 (or .def_160 .def_164)))
(let ((.def_347 (and .def_165 .def_346)))
(let ((.def_148 (and .s.4 .def_147)))
(let ((.def_149 (not .def_148)))
(let ((.def_157 (or .def_149 .def_156)))
(let ((.def_348 (and .def_157 .def_347)))
(let ((.def_144 (and .def_18 .s.4)))
(let ((.def_145 (not .def_144)))
(let ((.def_146 (or .def_53 .def_145)))
(let ((.def_349 (and .def_146 .def_348)))
(let ((.def_135 (and .s.4 .def_134)))
(let ((.def_136 (not .def_135)))
(let ((.def_143 (or .def_136 .def_142)))
(let ((.def_350 (and .def_143 .def_349)))
(let ((.def_128 (and .s.4.next .def_115)))
(let ((.def_125 (* (- 1) main.x.next)))
(let ((.def_126 (+ main.x .def_125)))
(let ((.def_127 (= .def_126 (- 1))))
(let ((.def_129 (and .def_127 .def_128)))
(let ((.def_130 (and .def_33 .def_129)))
(let ((.def_131 (and .def_30 .def_130)))
(let ((.def_123 (and .s.4 .def_122)))
(let ((.def_124 (not .def_123)))
(let ((.def_132 (or .def_124 .def_131)))
(let ((.def_351 (and .def_132 .def_350)))
(let ((.def_112 (and .s.4 .def_111)))
(let ((.def_113 (not .def_112)))
(let ((.def_120 (or .def_113 .def_119)))
(let ((.def_352 (and .def_120 .def_351)))
(let ((.def_105 (and .s.4.next .def_104)))
(let ((.def_106 (and .def_36 .def_105)))
(let ((.def_107 (and .def_33 .def_106)))
(let ((.def_108 (and .def_30 .def_107)))
(let ((.def_89 (+ main.n .def_88)))
(let ((.def_90 (<= .def_89 (- 1))))
(let ((.def_101 (not .def_90)))
(let ((.def_85 (and .s.4 .def_84)))
(let ((.def_102 (and .def_85 .def_101)))
(let ((.def_103 (not .def_102)))
(let ((.def_109 (or .def_103 .def_108)))
(let ((.def_353 (and .def_109 .def_352)))
(let ((.def_96 (and .s.4.next .def_95)))
(let ((.def_97 (and .def_36 .def_96)))
(let ((.def_98 (and .def_33 .def_97)))
(let ((.def_99 (and .def_30 .def_98)))
(let ((.def_91 (and .def_85 .def_90)))
(let ((.def_92 (not .def_91)))
(let ((.def_100 (or .def_92 .def_99)))
(let ((.def_354 (and .def_100 .def_353)))
(let ((.def_78 (and .s.4.next .def_62)))
(let ((.def_77 (= .def_76 1)))
(let ((.def_79 (and .def_77 .def_78)))
(let ((.def_80 (and .def_36 .def_79)))
(let ((.def_81 (and .def_33 .def_80)))
(let ((.def_71 (and .s.4 .def_70)))
(let ((.def_72 (not .def_71)))
(let ((.def_82 (or .def_72 .def_81)))
(let ((.def_355 (and .def_82 .def_354)))
(let ((.def_64 (and .def_36 .def_63)))
(let ((.def_65 (and .def_33 .def_64)))
(let ((.def_66 (and .def_30 .def_65)))
(let ((.def_58 (and .s.4 .def_57)))
(let ((.def_59 (not .def_58)))
(let ((.def_67 (or .def_59 .def_66)))
(let ((.def_356 (and .def_67 .def_355)))
(let ((.def_26 (and .s.4 .def_25)))
(let ((.def_27 (not .def_26)))
(let ((.def_54 (or .def_27 .def_53)))
(let ((.def_357 (and .def_54 .def_356)))
.def_357))))))))))))))))))))))))))))))))))))))))))))))))))))))))))))))))))))))))))))))))))))))))))))))))))))))))))))))))))))))))))))))))))))))))))))))))))))))))))))))))))))))))))))))))))))))))))))))))))))))))))))))))))))))))))))))))))))))))))))))))))))))))))))))))))))))))))))))))))))))))))))))))))))))))))))))))))))))))))))))))))) (state |.s.1.next| |.s.0.next| |.s.2.next| |.s.3.next| |.s.4.next| |main.y.next| |main.n.next| |main.x.next|))))
(assert (forall ((|.s.2| Bool) (|.s.3| Bool) (|.s.0| Bool) (|.s.1| Bool) (|.s.0.next| Bool) (|.s.1.next| Bool) (|.s.2.next| Bool) (|.s.3.next| Bool) (|.s.4.next| Bool) (|main.x.next| Int) (|main.x| Int) (|main.n.next| Int) (|main.n| Int) (|main.y.next| Int) (|main.y| Int) (|.s.4| Bool)) (=> (state |.s.1| |.s.0| |.s.2| |.s.3| |.s.4| |main.y| |main.n| |main.x|) (let ((.def_22 (not .s.0)))
(let ((.def_68 (and .s.1 .def_22)))
(let ((.def_14 (not .s.2)))
(let ((.def_133 (and .def_14 .def_68)))
(let ((.def_17 (not .s.3)))
(let ((.def_134 (and .def_17 .def_133)))
(let ((.def_135 (and .s.4 .def_134)))
(let ((.def_136 (not .def_135)))
.def_136)))))))))))
(check-sat)
